1737518
76,65,8,36,25,37,40,48,108,23,89,33,81,51,28,58,50,83,1,15,106,80,45,93,31,94,42,60,3,66,78,82,24,2,62,19,43,84,5,29,102,55,91,73,79,20,67,39,32,49,18,54,105,75,17,104,70,46,61,72,92,107,77,59,98,95,86,87,35,7,27,64,11,41,90,88,10,96,103,57,101,53,30,71,56,74,85,26,68,69,13,38,6,12,99,52,16,47,14,22,63,21,9,4,97,0,100,34,44
